19728
1 1 1 0 1 1 0 1 1 1 1 1 1 1 1 1 1 0 1 0 1 1 1 0 1 1 0 1 0 1
21 0 21 16 11 8 13 8 21 4 20 21 18 14 16 14 13 18 21 16 21 27 24 21 5 24 20 16 5 25 4 13 11 9 4 21 20 27 16 11 11 13 15 10 1 10 12 16 5 7 10 13 8 7 13 22 18 29 13 25 22 13 8 7 9 4 2 11 9 4 20 15 18 7 1 29 7 8 7 13 11 13 10 10 4 21 16 18 11 11 2 2 8 10 1 20 16 8 21 13 4 13 20 10 4 10 20 8 25 9 29 20 8 7 13 22 27 8 7 5 22 20 16 5 12 1 0 8 15 2 22 13 16 25 13 21 27 8 8 25 11 13 18 10 14 18 0 8 7 25